
!RKS B3LYP 6-31G(d,p) TightSCF D3BJ # def2-TZVPP

%pal nprocs 2 end
%maxcore 3000

%elprop
  Polar 1      # polarizability via CP-SCF
end

%output
  PrintLevel Normal
  Print[ P_OrbEn ] 2
end

*xyz 0 1
  F     -2.518486    2.717138    0.449194
  O      1.583065    0.807908   -1.760432
  O      2.270791    2.135967   -0.075042
  N     -1.160486   -2.507571   -0.354748
  N      4.077606    0.070628    0.643010
  C      0.490885   -1.232753    0.518024
  C      1.824719   -0.808932    1.052191
  C     -0.674415   -0.406936    0.321345
  C      2.802904   -0.239325   -0.008182
  C     -1.693405   -1.241315   -0.226349
  C      0.143452   -2.496317    0.092800
  C     -0.953280    0.953602    0.555519
  C     -2.967759   -0.757791   -0.538638
  C     -2.219851    1.403859    0.236170
  C      2.217279    1.032397   -0.594027
  C     -3.228105    0.588000   -0.300907
  H      2.330260   -1.667997    1.507090
  H      1.704253   -0.052439    1.835717
  H      2.881232   -0.971098   -0.822747
  H      0.733954   -3.401807    0.080383
  H     -1.651720   -3.318049   -0.702774
  H     -0.212230    1.634993    0.958482
  H     -3.730478   -1.408855   -0.953847
  H      4.746511    0.357188   -0.070114
  H      4.440564   -0.800935    1.025260
  H     -4.196933    1.021641   -0.523388
  H      1.166972    1.643997   -2.040988

*
