
!RKS B3LYP 6-31G(d,p) TightSCF D3BJ

%pal nprocs 2 end
%maxcore 3000

%elprop
  Polar 1      # polarizability via CP-SCF
end

%output
  PrintLevel Normal
  Print[ P_OrbEn ] 2
end

*xyz 0 2
  N     -0.313864   -1.432775    0.337791
  C      1.097981   -1.646516    0.659572
  C      1.330702   -3.111142    0.986060
  O      0.583503   -3.813958    1.647190
  C      1.463380   -0.790756    1.901837
  C      2.854714   -0.995554    2.400710
  N      3.166807   -1.991010    3.348473
  C      3.992228   -0.325919    2.109307
  C      4.571232   -1.990792    3.585760
  N      5.054461   -0.864462    2.856719
  O      2.506402   -3.553556    0.497994
  H     -0.516479   -1.886780   -0.551520
  H     -0.437413   -0.435705    0.168630
  H      1.789315   -1.377476   -0.148715
  H      1.322302    0.256692    1.617663
  H      0.739865   -1.021685    2.691355
  H      2.650486   -2.861653    3.371311
  H      4.124749    0.548124    1.488669
  H      5.107285   -2.937564    3.476735
  H      5.984707   -0.895612    2.457477
  H      2.632637   -4.471900    0.800981

*
