
!RKS B3LYP 6-31G(d,p) TightSCF Opt D3BJ
 
%pal nprocs 2 end
%maxcore 3000

%cpcm
  smd true
  SMDsolvent "WATER"
  end

%scf
  MaxIter 400
  SOSCF Start 0.00033
  end
end

%output
  PrintLevel Normal
  Print[ P_OrbEn ] 2        # print ALL orbital energies (not just up to LUMO+9) :contentReference[oaicite:10]{index=10}
  XYZFile true              # writes basename.xyz (handy for reuse) :contentReference[oaicite:11]{index=11}
  end

*xyz 0 2
N       -0.040000000     -1.210000000      0.053000000
C        1.172000000     -1.709000000      0.652000000
C        1.083000000     -3.207000000      0.905000000
O        0.040000000     -3.770000000      1.222000000
C        1.484000000     -0.975000000      1.962000000
C        2.940000000     -1.060000000      2.353000000
N        3.380000000     -2.075000000      3.129000000
C        3.960000000     -0.251000000      2.046000000
C        4.693000000     -1.908000000      3.317000000
N        5.058000000     -0.801000000      2.662000000
O        2.247000000     -3.882000000      0.744000000
H       -0.102000000     -1.155000000     -0.950000000
H       -0.715000000     -0.741000000      0.634000000
H        1.965000000     -1.558000000     -0.089000000
H        1.215000000      0.087000000      1.879000000
H        0.859000000     -1.368000000      2.775000000
H        2.828000000     -2.838000000      3.511000000
H        4.108000000      0.647000000      1.479000000
H        5.340000000     -2.550000000      3.892000000
H        6.002000000     -0.428000000      2.627000000
H        2.188000000     -4.848000000      0.901000000
*
