
!RKS B3LYP 6-31G(d,p) TightSCF D3BJ

%pal nprocs 2 end
%maxcore 3000

%elprop
  Polar 1      # polarizability via CP-SCF
end

%output
  PrintLevel Normal
  Print[ P_OrbEn ] 2
end

*xyz 0 1
  O      1.207084   -1.279810    1.290307
  O      1.794017   -0.942590   -0.859970
  N      1.739850    1.797167    0.073435
  C     -1.807156    0.165792   -0.417074
  C     -0.541253    1.015814   -0.655454
  C      0.646278    0.834575    0.310262
  C     -2.366558    0.342215    1.000686
  C     -1.623875   -1.322231   -0.748649
  C      1.269020   -0.541002    0.166769
  H     -2.555439    0.560734   -1.117927
  H     -0.172109    0.845802   -1.675082
  H     -0.819305    2.075175   -0.590589
  H      0.311491    0.953809    1.341898
  H     -1.702702   -0.102917    1.750402
  H     -2.496104    1.401215    1.251514
  H     -3.342020   -0.147243    1.095880
  H     -1.180325   -1.463428   -1.740169
  H     -0.985882   -1.827293   -0.016392
  H     -2.591650   -1.835616   -0.736368
  H      1.338599    2.730639    0.155047
  H      2.010735    1.707684   -0.906324
  H      1.622704   -2.143491    1.106897

*
