
!RKS B3LYP 6-31G(d,p) TightSCF D3BJ # def2-TZVPP

%pal nprocs 2 end
%maxcore 3000

%elprop
  Polar 1      # polarizability via CP-SCF
end

%output
  PrintLevel Normal
  Print[ P_OrbEn ] 2
end

*xyz 0 1
  O     -1.384078   -1.445171   -0.002480
  O     -1.741794    0.570815    0.933681
  N     -0.182174    1.792308   -1.005637
  C      1.367702    0.040110   -0.205351
  C     -0.038863    0.348926   -0.797033
  C      1.723768   -1.447089   -0.283611
  C      1.539539    0.577888    1.219000
  C     -1.137736   -0.125911    0.134589
  H      2.059430    0.583622   -0.863620
  H     -0.137768   -0.237430   -1.721894
  H      1.602613   -1.835516   -1.300630
  H      1.095938   -2.045566    0.383778
  H      2.766331   -1.599880    0.014265
  H      0.926245    0.014158    1.931917
  H      2.583200    0.484310    1.536244
  H      1.256197    1.631378    1.286011
  H     -1.093341    1.972582   -1.423253
  H      0.504611    2.064009   -1.706464
  H     -2.061422   -1.691342    0.654090

*
