
!RKS B3LYP 6-31G(d,p) TightSCF Opt D3BJ
 
%pal nprocs 2 end
%maxcore 3000

%cpcm
  smd true
  SMDsolvent "WATER"
  end

%scf
  MaxIter 1000
  SOSCF Start 0.00033
  end
end

%output
  PrintLevel Normal
  Print[ P_OrbEn ] 2        # print ALL orbital energies (not just up to LUMO+9) :contentReference[oaicite:10]{index=10}
  XYZFile true              # writes basename.xyz (handy for reuse) :contentReference[oaicite:11]{index=11}
  end

*xyz 0 1
F       -2.542400000      2.711500000      0.578500000
O        1.591100000      0.710400000     -1.824800000
O        2.368400000      2.129000000     -0.236100000
N       -1.129900000     -2.471800000     -0.393200000
N        4.036200000      0.115500000      0.654200000
C        0.476500000     -1.226800000      0.499300000
C        1.777100000     -0.805600000      1.058500000
C       -0.678800000     -0.412200000      0.335700000
C        2.775800000     -0.263400000      0.009900000
C       -1.671900000     -1.217500000     -0.226100000
C        0.168100000     -2.487400000      0.042200000
C       -0.975800000      0.937100000      0.612700000
C       -2.952300000     -0.738900000     -0.525900000
C       -2.252300000      1.429500000      0.318000000
C        2.234100000      0.988100000     -0.660400000
C       -3.223900000      0.602600000     -0.242500000
H        2.234700000     -1.658600000      1.578600000
H        1.606500000     -0.044200000      1.832100000
H        2.987000000     -1.018700000     -0.756100000
H        0.754200000     -3.394100000     -0.013600000
H       -1.619900000     -3.265900000     -0.781500000
H       -0.234500000      1.596200000      1.054600000
H       -3.709300000     -1.381800000     -0.962300000
H        4.714100000      0.388800000     -0.056600000
H        4.433400000     -0.695300000      1.127300000
H       -4.208700000      1.006200000     -0.463200000
H        1.249800000      1.522500000     -2.256300000
*
