
!RKS B3LYP 6-31G(d,p) TightSCF Opt D3BJ
 
%pal nprocs 2 end
%maxcore 3000

%cpcm
  smd true
  SMDsolvent "WATER"
  end

%scf
  MaxIter 1000
  SOSCF Start 0.00033
  end
end

%output
  PrintLevel Normal
  Print[ P_OrbEn ] 2        # print ALL orbital energies (not just up to LUMO+9) :contentReference[oaicite:10]{index=10}
  XYZFile true              # writes basename.xyz (handy for reuse) :contentReference[oaicite:11]{index=11}
  end

*xyz 0 1
F        0.543500000      2.663000000      0.176000000
F       -0.543700000     -1.897100000      0.926400000
F        1.982100000     -2.613900000      0.193600000
F        3.066800000      1.934900000     -0.554600000
F        3.790500000     -0.701800000     -0.547400000
O       -2.195800000     -1.169300000     -1.529300000
O       -3.925900000     -1.060000000     -0.066200000
N       -3.548600000      1.652100000      0.115300000
C       -1.415000000      0.787700000      0.961300000
C       -2.392400000      0.825800000     -0.223900000
C       -0.015300000      0.387200000      0.555700000
C        0.888900000      1.367900000      0.182800000
C        0.335700000     -0.952500000      0.564800000
C        1.627600000     -1.322200000      0.190500000
C        2.180900000      0.998300000     -0.191400000
C       -2.929500000     -0.553400000     -0.566000000
C        2.550100000     -0.346800000     -0.187700000
H       -1.778900000      0.108000000      1.744000000
H       -1.358200000      1.774300000      1.442100000
H       -1.930600000      1.256600000     -1.119800000
H       -3.242000000      2.605000000      0.308900000
H       -3.972600000      1.316300000      0.979900000
H       -2.556300000     -2.053500000     -1.754000000
*
