
!RKS B3LYP 6-31G(d,p) TightSCF D3BJ # def2-TZVPP

%pal nprocs 2 end
%maxcore 3000

%elprop
  Polar 1      # polarizability via CP-SCF
end

%output
  PrintLevel Normal
  Print[ P_OrbEn ] 2
end

*xyz 0 1
  O     -2.814387   -2.149278   -0.144817
  O      1.559870   -0.729709    1.783480
  O      1.986223   -2.241129    0.167782
  N     -0.627121    2.901563    0.188868
  N      4.113315   -0.553694   -0.659690
  C      0.795192    1.338408   -0.613820
  C      2.039007    0.674424   -1.120854
  C     -0.475666    0.712202   -0.345727
  C     -1.342572    1.719766    0.156795
  C      2.914264    0.003048   -0.028795
  C      0.650522    2.666499   -0.273802
  C     -0.943638   -0.611232   -0.477415
  C     -2.661739    1.435319    0.529772
  C     -2.249377   -0.889603   -0.090549
  C     -3.103713    0.125850    0.404290
  C      2.129094   -1.118833    0.627568
  C     -1.972902   -3.215647   -0.580150
  H      1.792947   -0.091234   -1.865395
  H      2.678917    1.413901   -1.615114
  H      3.121959    0.754108    0.744295
  H      1.369693    3.471932   -0.328864
  H     -0.986268    3.798247    0.482035
  H     -0.288465   -1.383723   -0.857779
  H     -3.318823    2.210374    0.912292
  H     -4.115127   -0.145818    0.689020
  H      4.732482   -0.903828    0.069765
  H      4.612487    0.220932   -1.093697
  H      1.003765   -1.462488    2.107034
  H     -2.570826   -4.125249   -0.503376
  H     -1.082654   -3.307686    0.054212
  H     -1.656258   -3.076524   -1.620966

*
