
!RKS B3LYP 6-31G(d,p) TightSCF D3BJ

%pal nprocs 2 end
%maxcore 3000

%elprop
  Polar 1      # polarizability via CP-SCF
end

%output
  PrintLevel Normal
  Print[ P_OrbEn ] 2
end

*xyz 0 1
  O      1.615127   -0.247420    0.005234
  O      2.582148    1.662583    0.714326
  N      3.894874   -1.449085   -0.845245
  C      5.278545    0.507852   -0.242765
  C      3.941964   -0.106630   -0.339511
  C      6.381719   -0.271905   -0.338847
  C      5.405913    2.008480   -0.117776
  C      7.812514    0.178470   -0.287220
  C      2.786108    0.458770    0.085299
  H      6.405656    2.314260   -0.408642
  H      6.038655   -1.811545    2.913595
  H      6.071403   -1.520355    2.229516
  H      6.231580   -1.345810   -0.410620
  H      4.696423    2.583599   -0.720440
  H      5.283429    2.336461    0.924752
  H      3.326351    2.258050    0.546491
  H      8.424022   -0.392303   -0.996510
  H      8.236767    0.001030    0.711143
  H      7.942952    1.242176   -0.516565
  H      2.934101   -1.723101   -1.028771
  H      4.413382   -1.496112   -1.720977
  H      0.875822    0.379997   -0.035536

*
