
!RKS B3LYP 6-31G(d,p) TightSCF D3BJ # def2-TZVPP

%pal nprocs 2 end
%maxcore 3000

%elprop
  Polar 1      # polarizability via CP-SCF
end

%output
  PrintLevel Normal
  Print[ P_OrbEn ] 2
end

*xyz 0 1
  O      1.533022    1.357145   -1.365029
  O      2.752888    1.507420    0.523634
  N      3.510426   -1.210870    0.001650
  N     -4.111268    0.797050   -0.449168
  C      1.157168   -1.172287    0.708018
  C      2.183925   -0.694599   -0.346896
  C     -0.246046   -0.684579    0.447439
  C     -0.722301    0.498594    1.029105
  C     -1.101743   -1.371018   -0.424918
  C      2.213867    0.824587   -0.331912
  C     -2.000100    0.980992    0.755431
  C     -2.381783   -0.901065   -0.707851
  C     -2.852787    0.288526   -0.122675
  H      1.187535   -2.267850    0.704132
  H      1.507881   -0.834561    1.688795
  H      1.829542   -1.007818   -1.337447
  H     -0.080510    1.052290    1.710181
  H     -0.761454   -2.294611   -0.887359
  H     -2.349283    1.897891    1.223508
  H     -3.030233   -1.454105   -1.382770
  H      4.151069   -1.003336   -0.763114
  H      3.439594   -2.226758    0.029733
  H     -4.773303    0.091403   -0.750174
  H     -4.510221    1.395274    0.264704
  H      1.540818    2.326884   -1.261317

*
