
!RKS B3LYP def2-TZVPP TightSCF D3BJ # 6-31G(d,p)

%pal nprocs 2 end
%maxcore 3000

%elprop
  Polar 1      # polarizability via CP-SCF
end

%output
  PrintLevel Normal
  Print[ P_OrbEn ] 2
end

*xyz 0 1
  Br     4.543399   -1.043628   -0.439785
  O     -1.497906   -1.219363   -1.427495
  O     -2.896853   -1.405740    0.315702
  N     -3.486422    1.329222   -0.089865
  C     -1.126192    1.157608    0.775527
  C     -2.149488    0.793330   -0.332109
  C      0.262048    0.643598    0.515171
  C      0.719870   -0.524783    1.123342
  C      1.104369    1.299357   -0.383785
  C     -2.243182   -0.712226   -0.435633
  C      1.984881   -1.033005    0.848640
  C      2.371506    0.808409   -0.672204
  C      2.796217   -0.357374   -0.050128
  H     -1.503797    0.771180    1.723283
  H     -1.118886    2.246677    0.835116
  H     -1.782684    1.177771   -1.281278
  H      0.080463   -1.049917    1.821189
  H      0.768930    2.208304   -0.866599
  H     -3.406426    2.333092    0.032850
  H     -3.829664    0.962238    0.792653
  H      2.324617   -1.938115    1.330761
  H      3.012980    1.329508   -1.367931
  H     -1.556480   -2.189042   -1.401921

*
