!RKS B3LYP 6-31G(d,p) TightSCF D3BJ

%pal nprocs 2 end
%maxcore 3000

%elprop
  Polar 1      # polarizability via CP-SCF :contentReference[oaicite:14]{index=14}
end

%output
  PrintLevel Normal
  Print[ P_OrbEn ] 2
end

*xyz 0 1
C     -1.224470   -4.892622    1.369882
C     -1.272054   -6.382146    1.728052
C     -0.102932   -6.768536    2.613335
N     -2.524279   -6.695171    2.417597
O     -0.188960   -7.301732    3.707111
O      1.083170   -6.480565    2.038156
H     -1.273022   -4.277967    2.273992
H     -2.082749   -4.644650    0.737755
H     -1.127549   -6.958061    0.798750
H     -2.527210   -7.686624    2.649937
H     -3.279573   -6.562282    1.747970
H      1.787187   -6.768620    2.647161
H     -0.312746   -4.647154    0.821115
*
