
!RKS B3LYP def2-TZVPP TightSCF Opt D3BJ # 6-31G(d,p)
 
%pal nprocs 2 end
%maxcore 3000

%cpcm
  smd true
  SMDsolvent "WATER"
  end

%scf
  MaxIter 1000
  SOSCF Start 0.00033
  end
end

%output
  PrintLevel Normal
  Print[ P_OrbEn ] 2        # print ALL orbital energies (not just up to LUMO+9) :contentReference[oaicite:10]{index=10}
  XYZFile true              # writes basename.xyz (handy for reuse) :contentReference[oaicite:11]{index=11}
  end

*xyz 0 1
Cl       4.539600000     -0.687700000     -0.428400000
O       -1.776100000     -1.650500000     -0.984300000
O       -3.496800000     -1.183400000      0.418100000
N       -3.279000000      1.466300000     -0.261900000
C       -1.090700000      1.024100000      0.753400000
C       -2.078900000      0.638500000     -0.358400000
C        0.326700000      0.592600000      0.455000000
C        0.756700000     -0.656400000      0.871200000
C        1.168100000      1.455300000     -0.228000000
C       -2.536500000     -0.805200000     -0.240800000
C        2.065100000     -1.054100000      0.596800000
C        2.476600000      1.057600000     -0.502600000
C        2.925200000     -0.197200000     -0.090200000
H       -1.405700000      0.602500000      1.717900000
H       -1.085900000      2.113400000      0.899800000
H       -1.651400000      0.792600000     -1.355900000
H        0.096100000     -1.330100000      1.409200000
H        0.827000000      2.433300000     -0.555300000
H       -3.027600000      2.447100000     -0.382200000
H       -3.674800000      1.394600000      0.675300000
H        2.401100000     -2.034500000      0.924800000
H        3.135300000      1.735700000     -1.039200000
H       -2.085200000     -2.578600000     -0.913200000
*
