
!RKS B3LYP 6-31G(d,p) TightSCF D3BJ # def2-TZVPP

%pal nprocs 2 end
%maxcore 3000

%elprop
  Polar 1      # polarizability via CP-SCF
end

%output
  PrintLevel Normal
  Print[ P_OrbEn ] 2
end

*xyz 0 1
  F      4.043830   -0.940009   -0.374781
  O     -1.510093   -1.224641   -1.411304
  O     -2.826842   -1.368274    0.413537
  N     -3.441641    1.354822   -0.069043
  C     -1.059456    1.189139    0.768201
  C     -2.103216    0.817844   -0.322584
  C      0.319556    0.640401    0.497813
  C      0.725642   -0.582473    1.050367
  C      1.199528    1.313637   -0.361363
  C     -2.206252   -0.693044   -0.392781
  C      1.979258   -1.124378    0.762943
  C      2.456922    0.789251   -0.661925
  C      2.821436   -0.423994   -0.090913
  H     -1.436335    0.821088    1.728696
  H     -1.032086    2.282784    0.815701
  H     -1.744581    1.185044   -1.287108
  H      0.052447   -1.118980    1.713106
  H      0.899720    2.262019   -0.798483
  H     -3.345097    2.355994    0.093961
  H     -3.763939    0.963289    0.815902
  H      2.302910   -2.067466    1.190273
  H      3.146340    1.305401   -1.321551
  H     -1.578554   -2.196054   -1.350563

*
