
!RKS B3LYP 6-31G(d,p) TightSCF D3BJ # def2-TZVPP

%pal nprocs 2 end
%maxcore 3000

%elprop
  Polar 1      # polarizability via CP-SCF
end

%output
  PrintLevel Normal
  Print[ P_OrbEn ] 2
end

*xyz 0 1
  O     -1.821942   -1.110337    0.475144
  O      1.039293   -1.603895    0.053276
  O      1.931451    0.273218   -0.815711
  N      0.343004    1.891012    0.721515
  C     -1.365178    0.208837    0.186277
  C      0.069495    0.455818    0.737868
  C     -1.475343    0.409576   -1.317045
  C      1.111286   -0.266377   -0.091170
  H      0.101937    0.006551    1.743071
  H     -2.001179    0.946274    0.698166
  H     -1.075055    1.385842   -1.598846
  H     -2.521891    0.356048   -1.630008
  H     -0.919732   -0.368071   -1.852627
  H      1.309367    2.044986    1.000287
  H     -0.234485    2.323552    1.439216
  H     -1.800847   -1.224067    1.436806
  H      1.715920   -2.000365   -0.525918

*
