
!RKS B3LYP 6-31G(d,p) TightSCF D3BJ # def2-TZVPP

%pal nprocs 2 end
%maxcore 3000

%elprop
  Polar 1      # polarizability via CP-SCF
end

%output
  PrintLevel Normal
  Print[ P_OrbEn ] 2
end

*xyz 0 1
  O      1.500725   -0.844121    1.703630
  O      2.414833   -1.949133   -0.034064
  N     -1.678452    2.024362    0.532164
  N      3.904427    0.393485   -0.593044
  C      0.162553    1.140145   -0.437111
  C      1.553499    0.986009   -0.971492
  C     -0.862882    0.125145   -0.378492
  C      2.595858    0.477995    0.059117
  C     -2.005105    0.718284    0.234935
  C     -0.380693    2.271281    0.127346
  C     -0.929930   -1.221352   -0.781759
  C     -3.192278    0.008197    0.446546
  C      2.188154   -0.899928    0.546896
  C     -2.108081   -1.929884   -0.571908
  C     -3.227884   -1.321009    0.036027
  H      1.563667    0.295562   -1.822211
  H      1.924004    1.951779   -1.332977
  H      2.568738    1.152604    0.924881
  H      0.059588    3.248234    0.270775
  H     -2.292150    2.698478    0.966032
  H     -0.070856   -1.700510   -1.241838
  H     -4.050961    0.479942    0.914980
  H     -2.171014   -2.970116   -0.878117
  H      4.603159    0.154410    0.108964
  H      4.144344    1.331537   -0.909476
  H     -4.133775   -1.900909    0.186564
  H      1.200714   -1.746887    1.917228

*
