
!RKS B3LYP 6-31G(d,p) TightSCF D3BJ # def2-TZVPP

%pal nprocs 2 end
%maxcore 3000

%elprop
  Polar 1      # polarizability via CP-SCF
end

%output
  PrintLevel Normal
  Print[ P_OrbEn ] 2
end

*xyz 0 1
  F      0.612875    2.609773   -0.039768
  F     -0.608626   -1.810621    1.126913
  F      1.841501   -2.685929    0.370680
  F      3.056550    1.731062   -0.805799
  F      3.683159   -0.919747   -0.603971
  O     -1.863192   -0.832654   -1.631956
  O     -3.558682   -1.207460   -0.192582
  N     -3.743673    1.539463    0.213142
  C     -1.429519    0.915758    0.993188
  C     -2.464303    0.952586   -0.172292
  C     -0.063813    0.429633    0.591118
  C      0.896728    1.299457    0.077801
  C      0.288971   -0.916359    0.669308
  C      1.538092   -1.383038    0.278429
  C      2.155561    0.864018   -0.321390
  C     -2.711153   -0.463349   -0.657088
  C      2.476551   -0.485291   -0.219574
  H     -1.828996    0.285232    1.792148
  H     -1.350109    1.936573    1.375152
  H     -2.030968    1.529853   -0.992776
  H     -3.554722    2.437558    0.654805
  H     -4.149144    0.949935    0.939445
  H     -2.031788   -1.769852   -1.843933

*
