
!RKS B3LYP 6-31G(d,p) TightSCF D3BJ

%pal nprocs 2 end
%maxcore 3000

%elprop
  Polar 1      # polarizability via CP-SCF
end

%output
  PrintLevel Normal
  Print[ P_OrbEn ] 2
end

*xyz 0 1
  O      4.222670    4.014270   -0.014712
  O      2.162553    3.036464   -0.005418
  N      5.581126    1.835513    0.012497
  C      3.172065   -0.974195    0.006665
  C      1.762964   -1.375719   -0.018955
  C      4.049299   -2.179320    0.090891
  C      1.380700   -2.688190   -0.012165
  C      3.572520   -3.478015    0.091814
  C      3.327486    0.421827    0.011709
  C      2.215634   -3.842609    0.031796
  C      4.155911    1.638742    0.019883
  C      3.432802    2.839986    0.002477
  H      5.610951   -1.134996    0.038586
  H     -0.633266    1.552117    0.133173
  H      1.037607   -0.570179    0.020147
  H      5.144791   -2.180808    0.166484
  H      6.365204   -0.616676    0.009386
  H      0.185708   -2.411312   -0.056039
  H      0.272104   -3.245838   -0.034438
  H      3.673585   -7.245906   -0.065854
  H      4.284478   -4.294447    0.156287
  H      2.331153    0.844313    0.010871
  H      0.014498    1.887595    0.010256
  H      1.844133   -4.845636    0.043734
  H      4.011255   -6.934455   -0.651380
  H      5.664827   -0.185535   -0.013518
  H      5.902644    2.783077   -0.010996
  H      6.322665    1.172586    0.048952
  H      3.556535    4.712247   -0.022135

*
