
!RKS B3LYP 6-31G(d,p) TightSCF Opt D3BJ
 
%pal nprocs 2 end
%maxcore 3000

%cpcm
  smd true
  SMDsolvent "WATER"
  end

%scf
  MaxIter 1000
  SOSCF Start 0.00033
  end
end

%output
  PrintLevel Normal
  Print[ P_OrbEn ] 2        # print ALL orbital energies (not just up to LUMO+9) :contentReference[oaicite:10]{index=10}
  XYZFile true              # writes basename.xyz (handy for reuse) :contentReference[oaicite:11]{index=11}
  end

*xyz 0 1
F        4.199200000     -0.631400000     -0.392500000
O       -1.772400000     -1.630200000     -0.993400000
O       -3.479200000     -1.156900000      0.423800000
N       -3.236200000      1.496300000     -0.233800000
C       -1.046900000      1.020800000      0.763900000
C       -2.046000000      0.656200000     -0.345200000
C        0.363800000      0.576400000      0.452900000
C        0.781800000     -0.681200000      0.854300000
C        1.210100000      1.436100000     -0.227400000
C       -2.518800000     -0.783300000     -0.237600000
C        2.083800000     -1.091300000      0.567200000
C        2.512000000      1.026100000     -0.514800000
C        2.948900000     -0.237700000     -0.117400000
H       -1.360600000      0.594100000      1.726600000
H       -1.029200000      2.108600000      0.920100000
H       -1.622900000      0.814600000     -1.343900000
H        0.117200000     -1.352600000      1.390100000
H        0.878200000      2.420900000     -0.543200000
H       -2.974800000      2.475300000     -0.346900000
H       -3.627100000      1.420600000      0.705100000
H        2.424400000     -2.074800000      0.877000000
H        3.185600000      1.690300000     -1.048100000
H       -2.091400000     -2.555500000     -0.928700000
*
