!RKS B3LYP 6-31G(d,p) TightSCF D3BJ

%pal nprocs 2 end
%maxcore 3000

%elprop
  Polar 1      # polarizability via CP-SCF :contentReference[oaicite:14]{index=14}
end

%output
  PrintLevel Normal
  Print[ P_OrbEn ] 2
end

*xyz 0 1
O      1.528503   -1.155901    0.326305
O     -0.939618    2.167746   -0.049308
O      1.872420    2.423035   -0.482245
O     -0.248532   -2.589715    0.323027
O      4.305923   -1.118684   -0.012457
O     -3.194747    0.241591    1.265170
N     -2.000198   -0.485479   -0.535336
C     -0.095851    1.078628   -0.403868
C     -0.694521   -0.264164    0.056523
C      1.327867    1.253764    0.126855
C      2.161368    0.011129   -0.217818
C      0.256284   -1.422119   -0.258893
C      3.563837    0.036855    0.366645
C     -3.156894   -0.171139    0.093628
C     -4.417286   -0.365740   -0.716497
H     -0.048979    1.088499   -1.499971
H     -0.826272   -0.238170    1.141960
H      1.287443    1.364808    1.219972
H      2.227738   -0.081267   -1.312702
H      0.380708   -1.536927   -1.347572
H      3.495437    0.125088    1.461224
H      4.103618    0.907138   -0.015674
H     -2.035138   -0.736452   -1.515426
H     -1.100057    2.113705    0.905489
H      2.605912    2.731313    0.067907
H      0.228610   -3.340414   -0.060599
H      3.760203   -1.879466    0.238617
H     -5.115296   -0.981690   -0.142657
H     -4.888687    0.609970   -0.871843
H     -4.235396   -0.832442   -1.687058
*
