
!RKS B3LYP 6-31G(d,p) TightSCF D3BJ

%pal nprocs 2 end
%maxcore 3000

%elprop
  Polar 1      # polarizability via CP-SCF
end

%output
  PrintLevel Normal
  Print[ P_OrbEn ] 2
end

*xyz 0 1
  O     -1.256199   -1.123906   -1.454261
  O     -2.544120   -1.278244    0.390240
  N     -3.005185    1.495111    0.062790
  C     -0.609672    1.154498    0.806733
  C     -1.709519    0.895607   -0.261979
  C      0.719196    0.526207    0.467267
  C      1.062668   -0.736774    0.969383
  C      1.606853    1.165251   -0.409624
  C     -1.901762   -0.601914   -0.397900
  C      2.266208   -1.345861    0.608213
  C      2.810796    0.559504   -0.772944
  C      3.144140   -0.699154   -0.264928
  H     -0.980214    0.772979    1.764553
  H     -0.508606    2.241507    0.894255
  H     -1.361696    1.287218   -1.220847
  H      0.378697   -1.244168    1.644974
  H      1.351293    2.144889   -0.805697
  H     -2.845078    2.480175    0.268354
  H     -3.320665    1.080387    0.939562
  H      2.518258   -2.323386    1.009436
  H      3.489487    1.069943   -1.450378
  H      4.081536   -1.170408   -0.545610
  H     -1.373217   -2.092263   -1.432991

*
