
!RKS B3LYP 6-31G(d,p) TightSCF D3BJ # def2-TZVPP

%pal nprocs 2 end
%maxcore 3000

%elprop
  Polar 1      # polarizability via CP-SCF
end

%output
  PrintLevel Normal
  Print[ P_OrbEn ] 2
end

*xyz 0 1
  O     -1.898726   -1.128944   -1.478822
  O     -3.366899   -1.525481    0.187661
  O      3.933676   -1.601233    0.279980
  O      4.254784    0.172156   -0.934212
  N     -4.179496    1.159238   -0.114854
  N      3.542493   -0.536097   -0.212400
  C     -1.836187    1.157566    0.834209
  C     -2.790181    0.764696   -0.335039
  C     -0.410138    0.737581    0.603066
  C      0.073967   -0.468465    1.134904
  C      0.436262    1.513945   -0.204776
  C      1.370478   -0.895133    0.875226
  C      1.735411    1.105785   -0.477715
  C     -2.741722   -0.741136   -0.507754
  C      2.184586   -0.098518    0.068324
  H     -2.224538    0.702402    1.750812
  H     -1.899054    2.245368    0.936887
  H     -2.421896    1.229818   -1.252314
  H     -0.576525   -1.078192    1.754108
  H      0.070409    2.447433   -0.620916
  H      1.749258   -1.822849    1.284537
  H      2.393114    1.701307   -1.097621
  H     -4.188549    2.152054    0.113225
  H     -4.507110    0.678708    0.722704
  H     -1.866917   -2.104110   -1.484220

*
