
!RKS B3LYP 6-31G(d,p) TightSCF D3BJ # def2-TZVPP

%pal nprocs 2 end
%maxcore 3000

%elprop
  Polar 1      # polarizability via CP-SCF
end

%output
  PrintLevel Normal
  Print[ P_OrbEn ] 2
end

*xyz 0 1
  O     -2.582731   -2.743417   -0.457877
  O      1.582731   -0.810427    1.751610
  O      2.268984   -2.137513    0.064917
  N     -1.148713    2.518550    0.354104
  N      4.079728   -0.074745   -0.649917
  C      0.495856    1.238998   -0.523149
  C      1.828454    0.811786   -1.057601
  C     -0.672808    0.415757   -0.328612
  C      2.805492    0.236946    0.001535
  C     -1.685524    1.251724    0.221426
  C      0.154321    2.503637   -0.094198
  C     -0.955776   -0.943448   -0.568019
  C     -2.958800    0.763843    0.531151
  C     -2.222980   -1.421253   -0.255853
  C     -3.218993   -0.579481    0.288031
  C      2.217111   -1.034300    0.585034
  H      1.706620    0.057056   -1.842809
  H      2.338039    1.669687   -1.510569
  H      2.885480    0.966831    0.817668
  H      0.748875    3.406542   -0.079804
  H     -1.636831    3.329479    0.704729
  H     -0.203577   -1.612810   -0.976180
  H     -3.722937    1.411945    0.949320
  H     -4.192220   -1.003860    0.512714
  H      4.747995   -0.363705    0.062864
  H      4.444397    0.796806   -1.030584
  H     -1.825383   -3.215130   -0.835420
  H      1.163391   -1.645798    2.029387

*
