
!RKS B3LYP 6-31G(d,p) TightSCF Opt D3BJ
 
%pal nprocs 2 end
%maxcore 3000

%cpcm
  smd true
  SMDsolvent "WATER"
  end

%scf
  MaxIter 1000
  SOSCF Start 0.00033
  end
end

%output
  PrintLevel Normal
  Print[ P_OrbEn ] 2        # print ALL orbital energies (not just up to LUMO+9) :contentReference[oaicite:10]{index=10}
  XYZFile true              # writes basename.xyz (handy for reuse) :contentReference[oaicite:11]{index=11}
  end

*xyz 0 1
O       -2.826800000     -2.159900000     -0.218600000
O        1.626800000     -0.520600000      1.896000000
O        2.181800000     -2.230000000      0.511900000
N       -0.607500000      2.835300000      0.207200000
N        4.063600000     -0.614700000     -0.663000000
C        0.759100000      1.279900000     -0.593000000
C        1.960000000      0.613800000     -1.136100000
C       -0.498800000      0.671400000     -0.324700000
C       -1.338000000      1.668800000      0.176600000
C        2.901500000      0.027400000     -0.052800000
C        0.661000000      2.610300000     -0.256200000
C       -1.005700000     -0.636300000     -0.460500000
C       -2.664000000      1.422800000      0.550400000
C       -2.330000000     -0.897100000     -0.090600000
C       -3.144800000      0.118100000      0.406800000
C        2.205400000     -1.035400000      0.780000000
C       -1.943600000     -3.153900000     -0.733500000
H        1.651200000     -0.185100000     -1.824000000
H        2.524200000      1.331200000     -1.747500000
H        3.256600000      0.821200000      0.615600000
H        1.378500000      3.417600000     -0.303200000
H       -0.957800000      3.728200000      0.526000000
H       -0.333400000     -1.386500000     -0.857500000
H       -3.298900000      2.212600000      0.937800000
H       -4.171700000     -0.100500000      0.690000000
H        4.716900000     -0.904800000      0.063900000
H        4.563400000      0.061000000     -1.239800000
H        1.187700000     -1.214200000      2.433000000
H       -2.501400000     -4.095700000     -0.765900000
H       -1.086400000     -3.314700000     -0.070600000
H       -1.638700000     -2.929300000     -1.761300000
*
