
!RKS B3LYP 6-31G(d,p) TightSCF D3BJ # def2-TZVPP

%pal nprocs 2 end
%maxcore 3000

%elprop
  Polar 1      # polarizability via CP-SCF
end

%output
  PrintLevel Normal
  Print[ P_OrbEn ] 2
end

*xyz 0 1
  F      2.920126    1.702245   -1.048221
  F      1.934728   -2.512390    0.770260
  F      3.644148   -0.856789   -0.529321
  O     -1.854974   -0.757800   -1.688097
  O     -3.207040   -1.363714    0.012785
  N     -3.816716    1.396244    0.232971
  C     -1.453597    1.014809    1.045650
  C     -2.474712    0.937242   -0.124852
  C     -0.076353    0.529461    0.669626
  C      0.301618   -0.794120    0.931861
  C      0.809142    1.379246   -0.006972
  C     -2.573173   -0.506080   -0.581345
  C      2.049533    0.902064   -0.402202
  C      1.548848   -1.244936    0.524891
  C      2.436242   -0.409266   -0.144003
  H     -1.849378    0.422636    1.877041
  H     -1.413842    2.061622    1.362702
  H     -2.097635    1.537209   -0.956263
  H     -0.365770   -1.478168    1.444929
  H      0.545235    2.408326   -0.226290
  H     -3.727884    2.327658    0.636307
  H     -4.152610    0.799880    0.989060
  H     -1.922436   -1.711077   -1.885016

*
