
!RKS B3LYP def2-TZVPP TightSCF D3BJ # 6-31G(d,p)

%pal nprocs 2 end
%maxcore 3000

%elprop
  Polar 1      # polarizability via CP-SCF
end

%output
  PrintLevel Normal
  Print[ P_OrbEn ] 2
end

*xyz 0 1
  Cl     4.399769   -1.015187   -0.422487
  O     -1.498021   -1.206229   -1.434290
  O     -2.888129   -1.395913    0.315588
  N     -3.468970    1.343707   -0.074529
  C     -1.105870    1.157412    0.780394
  C     -2.135188    0.803414   -0.324872
  C      0.278528    0.635945    0.513932
  C      0.731682   -0.536501    1.118083
  C      1.121790    1.288611   -0.386624
  C     -2.235713   -0.701142   -0.435707
  C      1.992500   -1.050685    0.838276
  C      2.384704    0.791123   -0.679922
  C      2.805742   -0.378312   -0.061582
  H     -1.482744    0.769730    1.727957
  H     -1.092051    2.246207    0.844186
  H     -1.770603    1.191124   -1.273567
  H      0.091198   -1.059161    1.816712
  H      0.789535    2.200316   -0.866308
  H     -3.384091    2.346474    0.053876
  H     -3.810295    0.973061    0.807210
  H      2.334596   -1.958355    1.314283
  H      3.030908    1.306036   -1.376228
  H     -1.560377   -2.175775   -1.413280

*
