
!RKS B3LYP def2-TZVPP TightSCF D3BJ # 6-31G(d,p)

%pal nprocs 2 end
%maxcore 3000

%elprop
  Polar 1      # polarizability via CP-SCF
end

%output
  PrintLevel Normal
  Print[ P_OrbEn ] 2
end

*xyz 0 1
  O     -1.908842   -1.088663   -1.528066
  O     -3.388516   -1.542427    0.096517
  O      4.301137    0.331898   -0.955488
  O      4.093554   -1.520544    0.289518
  N     -4.186537    1.157825   -0.094479
  C     -1.854337    1.116029    0.855661
  C     -2.801535    0.759212   -0.323108
  C     -0.423615    0.725019    0.622812
  C      0.093138   -0.453539    1.166129
  C      0.401901    1.507593   -0.187874
  C      1.397063   -0.841498    0.907288
  C      1.707089    1.127113   -0.452087
  C      2.216227   -0.054994    0.094233
  C     -2.756238   -0.734752   -0.551606
  C      3.600908   -0.500891   -0.160651
  H     -2.239201    0.632097    1.754156
  H     -1.931778    2.195506    0.990161
  H     -2.434789    1.252085   -1.220708
  H     -0.536989   -1.070431    1.793279
  H      0.014964    2.423692   -0.614840
  H      1.787774   -1.754634    1.332827
  H      2.329950    1.746232   -1.079949
  H     -4.200576    2.151081    0.111326
  H     -4.527487    0.689149    0.739298
  H     -1.873719   -2.058206   -1.582173
  H      5.192153   -0.033749   -1.070474

*
