
!RKS B3LYP 6-31G(d,p) TightSCF D3BJ # def2-TZVPP

%pal nprocs 2 end
%maxcore 3000

%elprop
  Polar 1      # polarizability via CP-SCF
end

%output
  PrintLevel Normal
  Print[ P_OrbEn ] 2
end

*xyz 0 1
  O      1.885600    1.048618   -0.293236
  O     -0.953757    1.452615    0.784654
  O     -1.555631    0.185882   -0.982235
  N     -0.151349   -2.010828    0.274482
  C      0.220241   -0.611011    0.464405
  C      1.504967   -0.321207   -0.332197
  C     -0.857193    0.360655    0.004277
  H      0.416871   -0.428572    1.524434
  H      2.297670   -0.978643    0.046238
  H      1.331743   -0.565301   -1.385981
  H     -0.509310   -2.106852   -0.675809
  H     -0.942800   -2.217688    0.881395
  H      2.063850    1.274079    0.631862
  H     -1.632901    2.039952    0.402911

*
