
!RKS B3LYP 6-31G(d,p) TightSCF Opt D3BJ
 
%pal nprocs 2 end
%maxcore 3000

%cpcm
  smd true
  SMDsolvent "WATER"
  end

%scf
  MaxIter 1000
  SOSCF Start 0.00033
  end
end

%output
  PrintLevel Normal
  Print[ P_OrbEn ] 2        # print ALL orbital energies (not just up to LUMO+9) :contentReference[oaicite:10]{index=10}
  XYZFile true              # writes basename.xyz (handy for reuse) :contentReference[oaicite:11]{index=11}
  end

*xyz 0 1
F        2.990500000      2.058600000     -0.631700000
F        2.075300000     -2.466200000      0.424400000
F        3.809900000     -0.544000000     -0.453800000
O       -2.160200000     -1.290600000     -1.364100000
O       -3.886700000     -1.146600000      0.100200000
N       -3.607100000      1.583400000      0.099300000
C       -1.439900000      0.854100000      0.986200000
C       -2.423200000      0.778300000     -0.192300000
C       -0.028300000      0.478000000      0.598500000
C        0.370700000     -0.844600000      0.694000000
C        0.837800000      1.463800000      0.155600000
C       -2.911500000     -0.638800000     -0.438700000
C        2.140600000      1.117000000     -0.202200000
C        1.673500000     -1.191500000      0.336400000
C        2.558500000     -0.210900000     -0.111800000
H       -1.774300000      0.214100000      1.814300000
H       -1.414500000      1.872900000      1.398000000
H       -1.981300000      1.164900000     -1.118000000
H       -0.309000000     -1.615600000      1.044300000
H        0.521100000      2.499900000      0.079500000
H       -3.334400000      2.557500000      0.227200000
H       -4.014800000      1.290900000      0.987200000
H       -2.489200000     -2.200300000     -1.527000000
*
