
!RKS B3LYP def2-TZVPP TightSCF Opt D3BJ # 6-31G(d,p)
 
%pal nprocs 2 end
%maxcore 3000

%cpcm
  smd true
  SMDsolvent "WATER"
  end

%scf
  MaxIter 1000
  SOSCF Start 0.00033
  end
end

%output
  PrintLevel Normal
  Print[ P_OrbEn ] 2        # print ALL orbital energies (not just up to LUMO+9) :contentReference[oaicite:10]{index=10}
  XYZFile true              # writes basename.xyz (handy for reuse) :contentReference[oaicite:11]{index=11}
  end

*xyz 0 1
O       -2.034900000     -1.719100000     -0.944500000
O       -3.813500000     -1.289200000      0.396200000
N       -3.701500000      1.344300000     -0.367400000
N        5.039500000     -0.656700000     -0.408400000
C       -1.523600000      1.040400000      0.718700000
C       -2.461700000      0.572100000     -0.404600000
C       -0.079800000      0.667600000      0.472000000
C        0.396300000     -0.546100000      0.939600000
C        0.738300000      1.546900000     -0.217900000
C       -2.854100000     -0.887300000     -0.249900000
C        1.728500000     -0.890200000      0.711200000
C        2.070600000      1.202600000     -0.446400000
C        2.565700000     -0.015900000      0.018300000
C        3.930200000     -0.369300000     -0.217100000
H       -1.844700000      0.635900000      1.688400000
H       -1.573900000      2.132900000      0.828300000
H       -2.014500000      0.713700000     -1.395300000
H       -0.246500000     -1.232900000      1.482500000
H        0.361000000      2.496600000     -0.585900000
H       -3.493000000      2.331500000     -0.514300000
H       -4.119100000      1.284400000      0.561200000
H        2.099700000     -1.843600000      1.079800000
H        2.710700000      1.894200000     -0.989100000
H       -2.302200000     -2.658200000     -0.850100000
*
