
!RKS B3LYP 6-31G(d,p) TightSCF Opt D3BJ
 
%pal nprocs 2 end
%maxcore 3000

%cpcm
  smd true
  SMDsolvent "WATER"
  end

%scf
  MaxIter 1000
  SOSCF Start 0.00033
  end
end

%output
  PrintLevel Normal
  Print[ P_OrbEn ] 2        # print ALL orbital energies (not just up to LUMO+9) :contentReference[oaicite:10]{index=10}
  XYZFile true              # writes basename.xyz (handy for reuse) :contentReference[oaicite:11]{index=11}
  end

*xyz 0 1
O       -2.682800000      0.930400000      1.455400000
O       -4.261300000      0.263000000     -0.039600000
N       -2.931800000     -2.163600000     -0.192200000
C       -1.265200000     -0.561300000     -1.040500000
C       -0.121100000      0.319000000     -0.642700000
C        1.125400000     -0.205300000     -0.263500000
C       -2.158500000     -0.967400000      0.147000000
C        2.166600000      0.680600000      0.102700000
C       -0.337900000      1.697100000     -0.660900000
C        1.361400000     -1.589400000     -0.239600000
C        1.930500000      2.064900000      0.078800000
C        0.685900000      2.568200000     -0.300700000
C        3.413100000      0.156400000      0.482000000
C       -3.160300000      0.122000000      0.474000000
C        2.606000000     -2.092800000      0.139900000
C        3.629900000     -1.221700000      0.499900000
H       -1.873100000     -0.035200000     -1.792100000
H       -0.903600000     -1.440300000     -1.586900000
H       -1.566300000     -1.201700000      1.038700000
H       -1.298900000      2.109800000     -0.956500000
H        0.599200000     -2.320100000     -0.491100000
H        2.716200000      2.764600000      0.356200000
H        0.516800000      3.641000000     -0.315500000
H        4.227600000      0.818700000      0.767700000
H        2.774900000     -3.165600000      0.158500000
H       -3.517800000     -1.983200000     -1.006300000
H       -3.559400000     -2.402000000      0.574500000
H        4.598200000     -1.614500000      0.796300000
H       -3.320800000      1.637900000      1.689000000
*
