
!RKS B3LYP 6-31G(d,p) TightSCF D3BJ

%pal nprocs 2 end
%maxcore 3000

%elprop
  Polar 1      # polarizability via CP-SCF
end

%output
  PrintLevel Normal
  Print[ P_OrbEn ] 2
end

*xyz 0 1
  O      3.108318   -1.094148    0.193173
  O      2.507126    0.897393   -0.668091
  N     -0.111728    1.581595    0.808558
  C     -1.722208   -0.131984   -0.057371
  C     -0.277137    0.445382   -0.118712
  C     -1.906730   -1.170236   -1.178668
  C     -2.020214   -0.788271    1.300959
  C     -2.730095    1.008141   -0.297156
  C      0.793873   -0.596783    0.212650
  C      2.192085   -0.159517   -0.140767
  H     -0.116961    0.753564   -1.165082
  H     -1.262194   -2.044666   -1.045762
  H     -2.941840   -1.528379   -1.193632
  H     -1.688437   -0.735196   -2.160824
  H     -1.842633   -0.091122    2.125000
  H     -1.401366   -1.676186    1.466368
  H     -3.068121   -1.105206    1.345956
  H     -2.506181    1.550171   -1.223962
  H     -3.743862    0.602756   -0.384124
  H     -2.737435    1.728033    0.527179
  H      0.786879   -0.835231    1.281769
  H      0.618491   -1.539879   -0.313661
  H     -0.712541    2.340588    0.495795
  H      0.836369    1.932555    0.686723
  H      3.986343   -0.752876   -0.056417

*
