
!RKS B3LYP 6-31G(d,p) TightSCF Opt D3BJ
 
%pal nprocs 2 end
%maxcore 3000

%cpcm
  smd true
  SMDsolvent "WATER"
  end

%scf
  MaxIter 1000
  SOSCF Start 0.00033
  end
end

%output
  PrintLevel Normal
  Print[ P_OrbEn ] 2        # print ALL orbital energies (not just up to LUMO+9) :contentReference[oaicite:10]{index=10}
  XYZFile true              # writes basename.xyz (handy for reuse) :contentReference[oaicite:11]{index=11}
  end

*xyz 0 1
O        1.103300000     -1.286000000      1.267300000
O        1.553700000     -1.050900000     -0.942600000
N        1.731300000      1.754500000      0.012000000
C       -1.802100000      0.190500000     -0.408700000
C       -0.564300000      1.079300000     -0.649400000
C        0.624900000      0.840800000      0.294800000
C       -2.342300000      0.318300000      1.016000000
C       -1.450900000     -1.271900000     -0.698400000
C        1.146400000     -0.574700000      0.109000000
H       -2.582400000      0.508400000     -1.111400000
H       -0.244500000      0.957300000     -1.693700000
H       -0.879800000      2.127300000     -0.553100000
H        0.326700000      0.988000000      1.337500000
H       -1.648800000     -0.080300000      1.762900000
H       -2.544700000      1.366100000      1.261000000
H       -3.282800000     -0.234700000      1.115500000
H       -0.859000000     -1.387100000     -1.610900000
H       -0.991400000     -1.796300000      0.139800000
H       -2.386600000     -1.816700000     -0.882300000
H        1.415400000      2.715900000      0.137200000
H        1.998600000      1.678500000     -0.969400000
H        1.434700000     -2.201300000      1.146000000
*
