
!RKS B3LYP 6-31G(d,p) TightSCF D3BJ # def2-TZVPP

%pal nprocs 2 end
%maxcore 3000

%elprop
  Polar 1      # polarizability via CP-SCF
end

%output
  PrintLevel Normal
  Print[ P_OrbEn ] 2
end

*xyz 0 1
  O      0.790435    0.954476   -0.293681
  O      0.326331   -1.705843   -1.292516
  O     -2.069786   -1.987110    0.164028
  O     -2.803749    0.751105    0.459836
  O     -0.809515    2.580674   -0.562511
  O      3.490861    0.631567    0.389619
  C      0.259737   -1.368184    0.093569
  C     -1.154488   -0.959172    0.524622
  C      1.212615   -0.217152    0.432877
  C     -1.551319    0.375571   -0.103682
  C     -0.479463    1.431348    0.164219
  C      2.657859   -0.470595    0.038236
  H      0.552278   -2.267785    0.644054
  H     -1.141910   -0.823537    1.617366
  H      1.165705   -0.011574    1.511771
  H     -1.635852    0.252277   -1.192523
  H     -0.413018    1.641980    1.242308
  H      2.714097   -0.682654   -1.037313
  H      3.029892   -1.345473    0.579282
  H      0.333951   -0.870901   -1.786476
  H     -2.953991   -1.642317    0.360185
  H     -3.111439    1.532512   -0.022403
  H     -0.303869    3.322606   -0.198315
  H      3.080137    1.413582   -0.009355

*
