
!RKS B3LYP 6-31G(d,p) TightSCF Opt D3BJ
 
%pal nprocs 2 end
%maxcore 3000

%cpcm
  smd true
  SMDsolvent "WATER"
  end

%scf
  MaxIter 1000
  SOSCF Start 0.00033
  end
end

%output
  PrintLevel Normal
  Print[ P_OrbEn ] 2        # print ALL orbital energies (not just up to LUMO+9) :contentReference[oaicite:10]{index=10}
  XYZFile true              # writes basename.xyz (handy for reuse) :contentReference[oaicite:11]{index=11}
  end

*xyz 0 1
O        2.536900000     -0.095000000      0.000000000
O        3.403000000      1.405000000      0.000000000
N        4.269000000     -1.095000000      0.000000000
C        5.135000000      0.405000000      0.000000000
C        4.269000000     -0.095000000      0.000000000
C        6.001000000     -0.095000000      0.000000000
C        5.135000000      1.405000000      0.000000000
C        6.867100000      0.405000000      0.000000000
C        3.403000000      0.405000000      0.000000000
H        5.672000000      0.715000000      0.000000000
H        4.805900000     -0.405000000      0.000000000
H        5.602500000     -0.569900000      0.000000000
H        6.399600000     -0.569900000      0.000000000
H        5.755000000      1.405000000      0.000000000
H        5.135000000      2.025000000      0.000000000
H        4.515000000      1.405000000      0.000000000
H        7.177100000     -0.131900000      0.000000000
H        7.404000000      0.715000000      0.000000000
H        6.557100000      0.941900000      0.000000000
H        3.732100000     -1.405000000      0.000000000
H        4.805900000     -1.405000000      0.000000000
H        2.000000000      0.215000000      0.000000000
*
