
!RKS B3LYP 6-31G(d,p) TightSCF D3BJ # def2-TZVPP

%pal nprocs 2 end
%maxcore 3000

%elprop
  Polar 1      # polarizability via CP-SCF
end

%output
  PrintLevel Normal
  Print[ P_OrbEn ] 2
end

*xyz 0 1
  O     -3.750012   -0.728713    0.006406
  O      1.772312   -1.337554    1.388776
  O      3.155445   -1.517038   -0.381207
  N      3.867181    1.206767    0.145656
  C      1.572027    1.166009   -0.726464
  C      2.518217    0.697892    0.405610
  C      0.147042    0.704362   -0.547911
  C     -0.299835   -0.497560   -1.119392
  C     -0.753816    1.434307    0.233072
  C      2.544697   -0.821597    0.413556
  C     -1.598854   -0.951214   -0.918682
  C     -2.063787    0.996211    0.446459
  C     -2.488471   -0.204808   -0.132965
  C     -4.686374    0.004277    0.798259
  H      1.616541    2.260562   -0.742520
  H      1.980171    0.802135   -1.674827
  H      2.093548    1.025309    1.363399
  H      0.382419   -1.085776   -1.727510
  H     -0.431435    2.368530    0.685743
  H     -1.943954   -1.879068   -1.364203
  H     -2.734575    1.591711    1.053569
  H      4.454394    0.996052    0.951256
  H      3.804121    2.222905    0.111567
  H      1.784875   -2.308721    1.299709
  H     -5.610683   -0.575076    0.782845
  H     -4.873759    0.998279    0.376282
  H     -4.339634    0.107218    1.832817

*
