
!RKS B3LYP 6-31G(d,p) TightSCF Opt D3BJ
 
%pal nprocs 2 end
%maxcore 3000

%cpcm
  smd true
  SMDsolvent "WATER"
  end

%scf
  MaxIter 1000
  SOSCF Start 0.00033
  end
end

%output
  PrintLevel Normal
  Print[ P_OrbEn ] 2        # print ALL orbital energies (not just up to LUMO+9) :contentReference[oaicite:10]{index=10}
  XYZFile true              # writes basename.xyz (handy for reuse) :contentReference[oaicite:11]{index=11}
  end

*xyz 0 1
O       -1.545000000     -1.473300000     -0.263400000
O       -1.730800000      0.376300000      1.030100000
N       -0.256100000      1.767300000     -0.856900000
C        1.380400000      0.013000000     -0.230700000
C       -0.046400000      0.324300000     -0.744500000
C        1.731800000     -1.477400000     -0.162600000
C        1.651800000      0.683800000      1.120000000
C       -1.185800000     -0.213900000      0.108000000
H        2.084300000      0.457100000     -0.949500000
H       -0.159200000     -0.097100000     -1.751600000
H        1.556700000     -1.958500000     -1.130400000
H        1.128800000     -1.994800000      0.590500000
H        2.786600000     -1.616800000      0.096700000
H        0.988600000      0.297000000      1.900700000
H        2.682400000      0.493100000      1.440300000
H        1.528700000      1.770100000      1.071700000
H       -1.141500000      1.950700000     -1.327900000
H        0.467900000      2.174100000     -1.448100000
H       -2.274800000     -1.822800000      0.291200000
*
