
!RKS B3LYP 6-31G(d,p) TightSCF Opt D3BJ
 
%pal nprocs 2 end
%maxcore 3000

%cpcm
  smd true
  SMDsolvent "WATER"
  end

%scf
  MaxIter 1000
  SOSCF Start 0.00033
  end
end

%output
  PrintLevel Normal
  Print[ P_OrbEn ] 2        # print ALL orbital energies (not just up to LUMO+9) :contentReference[oaicite:10]{index=10}
  XYZFile true              # writes basename.xyz (handy for reuse) :contentReference[oaicite:11]{index=11}
  end

*xyz 0 1
O       -1.772700000     -1.631300000     -0.993100000
O        4.218300000     -0.635100000     -0.394700000
O       -3.480100000     -1.158400000      0.423400000
N       -3.238700000      1.494700000     -0.235100000
C       -1.049300000      1.021000000      0.763300000
C       -2.047900000      0.655300000     -0.345800000
C        0.361800000      0.577400000      0.452900000
C        0.780300000     -0.679800000      0.855300000
C        1.207700000      1.437300000     -0.227600000
C       -2.519700000     -0.784600000     -0.237800000
C        2.082700000     -1.089100000      0.569000000
C        2.510100000      1.028000000     -0.514100000
C        2.947600000     -0.235300000     -0.115800000
H       -1.363100000      0.594500000      1.726100000
H       -1.032200000      2.108900000      0.919000000
H       -1.624600000      0.813500000     -1.344500000
H        0.115800000     -1.351200000      1.391400000
H        0.875200000      2.421700000     -0.544000000
H       -2.977700000      2.473700000     -0.348600000
H       -3.629700000      1.419000000      0.703800000
H        2.411400000     -2.075400000      0.885300000
H        3.179000000      1.697300000     -1.048200000
H       -2.091200000     -2.556800000     -0.928200000
H        4.349400000     -1.533900000     -0.046700000
*
