
!RKS B3LYP 6-31G(d,p) TightSCF D3BJ # def2-TZVPP

%pal nprocs 2 end
%maxcore 3000

%elprop
  Polar 1      # polarizability via CP-SCF
end

%output
  PrintLevel Normal
  Print[ P_OrbEn ] 2
end

*xyz 0 1
  O     -1.514037   -1.231605   -1.410394
  O      4.107992   -0.879292   -0.418773
  O     -2.805283   -1.377559    0.432144
  N     -3.453678    1.337343   -0.066994
  C     -1.065607    1.196638    0.761647
  C     -2.110475    0.811308   -0.322777
  C      0.317092    0.656068    0.493780
  C      0.730456   -0.568361    1.035022
  C      1.203027    1.334360   -0.355696
  C     -2.200809   -0.700457   -0.385085
  C      1.986717   -1.101793    0.747063
  C      2.461613    0.816449   -0.653480
  C      2.855349   -0.406828   -0.099863
  H     -1.439448    0.833054    1.725440
  H     -1.047624    2.291060    0.802624
  H     -1.759465    1.176746   -1.290809
  H      0.058901   -1.115737    1.691336
  H      0.903986    2.285593   -0.788493
  H     -3.364551    2.339989    0.091523
  H     -3.767565    0.947744    0.821890
  H      2.297087   -2.050684    1.176899
  H      3.145977    1.347924   -1.307412
  H     -1.574276   -2.203181   -1.343903
  H      4.247023   -1.727382    0.029613

*
