
!RKS B3LYP 6-31G(d,p) TightSCF Opt D3BJ
 
%pal nprocs 2 end
%maxcore 3000

%cpcm
  smd true
  SMDsolvent "WATER"
  end

%scf
  MaxIter 1000
  SOSCF Start 0.00033
  end
end

%output
  PrintLevel Normal
  Print[ P_OrbEn ] 2        # print ALL orbital energies (not just up to LUMO+9) :contentReference[oaicite:10]{index=10}
  XYZFile true              # writes basename.xyz (handy for reuse) :contentReference[oaicite:11]{index=11}
  end

*xyz 0 1
O       -1.710600000     -1.184700000      0.358100000
O        0.975800000     -1.681100000      0.131000000
O        2.021400000      0.150500000     -0.700700000
N        0.405300000      1.866900000      0.574300000
C       -1.354400000      0.188000000      0.204300000
C        0.066400000      0.448800000      0.728500000
C       -1.525500000      0.551400000     -1.265400000
C        1.121600000     -0.339800000     -0.030000000
H        0.145300000      0.169900000      1.785700000
H       -2.074100000      0.770900000      0.792100000
H       -1.327300000      1.609700000     -1.457900000
H       -2.551800000      0.337600000     -1.585600000
H       -0.876200000     -0.053100000     -1.907800000
H        1.307600000      2.051500000      1.011500000
H       -0.274500000      2.435700000      1.077700000
H       -1.607000000     -1.409300000      1.298500000
H        1.664100000     -2.184300000     -0.354000000
*
