
!RKS B3LYP 6-31G(d,p) TightSCF Opt D3BJ
 
%pal nprocs 2 end
%maxcore 3000

%cpcm
  smd true
  SMDsolvent "WATER"
  end

%scf
  MaxIter 400
  SOSCF Start 0.00033
  end
end

%output
  PrintLevel Normal
  Print[ P_OrbEn ] 2        # print ALL orbital energies (not just up to LUMO+9) :contentReference[oaicite:10]{index=10}
  XYZFile true              # writes basename.xyz (handy for reuse) :contentReference[oaicite:11]{index=11}
  end

*xyz 0 1
8        1.553600000     -1.154900000      0.282700000
8       -0.938700000      2.105200000      0.313400000
8        1.824800000      2.435200000     -0.435000000
8       -0.249700000     -2.628100000      0.294400000
8        4.267200000     -1.053200000     -0.117600000
8       -3.313600000      0.496800000      1.136500000
7       -1.999100000     -0.493900000     -0.509200000
6       -0.144300000      1.083700000     -0.293000000
6       -0.709300000     -0.280500000      0.114100000
6        1.306900000      1.249900000      0.163300000
6        2.143900000      0.034700000     -0.244300000
6        0.256900000     -1.411800000     -0.253800000
6        3.569200000      0.108100000      0.294000000
6       -3.190700000     -0.084000000      0.061300000
6       -4.377100000     -0.407200000     -0.807000000
1       -0.218400000      1.230500000     -1.377600000
1       -0.870300000     -0.289700000      1.201000000
1        1.328800000      1.387600000      1.252000000
1        2.198000000     -0.054300000     -1.337800000
1        0.326400000     -1.536100000     -1.342100000
1        3.584100000      0.138000000      1.388600000
1        4.106100000      0.979300000     -0.090400000
1       -2.016200000     -0.906700000     -1.437700000
1       -0.884400000      1.997700000      1.278300000
1        2.670200000      2.641200000     -0.002400000
1        0.114200000     -3.354500000     -0.239800000
1        3.784800000     -1.824100000      0.227200000
1       -5.298000000     -0.292900000     -0.228600000
1       -4.400100000      0.275900000     -1.660400000
1       -4.316800000     -1.438400000     -1.166700000
*
