
!RKS B3LYP 6-31G(d,p) TightSCF D3BJ

%pal nprocs 2 end
%maxcore 3000

%elprop
  Polar 1      # polarizability via CP-SCF
end

%output
  PrintLevel Normal
  Print[ P_OrbEn ] 2
end

*xyz 0 1
  S      2.378210    0.841820    0.434457
  O     -1.284931    1.666435    0.501845
  O     -2.719898    0.295576   -0.564726
  N     -1.377520   -1.907217    0.550428
  C      0.342302   -0.758428   -0.756453
  C     -0.676245   -0.629080    0.393397
  C      1.262766    0.442774   -0.969994
  C     -1.682318    0.456710    0.055770
  C      3.455412   -0.632405    0.419119
  H      0.942438   -1.653400   -0.557685
  H     -0.205896   -0.945589   -1.687511
  H     -0.140392   -0.303738    1.294011
  H      0.688255    1.356068   -1.144995
  H      1.884536    0.273339   -1.854098
  H     -1.987949   -1.842676    1.363713
  H     -0.675854   -2.605340    0.790745
  H      2.905797   -1.534473    0.697296
  H      4.244633   -0.461898    1.155231
  H      3.911042   -0.766094   -0.565886
  H     -1.938689    2.325317    0.202935

*
