
!RKS B3LYP 6-31G(d,p) TightSCF Opt D3BJ
 
%pal nprocs 2 end
%maxcore 3000

%cpcm
  smd true
  SMDsolvent "WATER"
  end

%scf
  MaxIter 1000
  SOSCF Start 0.00033
  end
end

%output
  PrintLevel Normal
  Print[ P_OrbEn ] 2        # print ALL orbital energies (not just up to LUMO+9) :contentReference[oaicite:10]{index=10}
  XYZFile true              # writes basename.xyz (handy for reuse) :contentReference[oaicite:11]{index=11}
  end

*xyz 0 1
O       -2.556000000     -2.727200000     -0.589000000
O        1.563800000     -0.673300000      1.816100000
O        2.392900000     -2.130900000      0.288400000
N       -1.119300000      2.471100000      0.397500000
N        4.030500000     -0.143400000     -0.659700000
C        0.478300000      1.225000000     -0.509200000
C        1.774600000      0.803000000     -1.076400000
C       -0.678100000      0.412800000     -0.341400000
C        2.775000000      0.253900000     -0.026900000
C       -1.665700000      1.218700000      0.229200000
C        0.175900000      2.484800000     -0.045900000
C       -0.980300000     -0.934800000     -0.621000000
C       -2.945400000      0.742400000      0.535500000
C       -2.256300000     -1.424900000     -0.320200000
C       -3.222100000     -0.597500000      0.249200000
C        2.232100000     -0.979800000      0.673800000
H        1.600300000      0.041400000     -1.848800000
H        2.235000000      1.654400000     -1.596200000
H        2.995300000      1.018500000      0.727900000
H        0.764800000      3.389800000      0.009600000
H       -1.604800000      3.265000000      0.791600000
H       -0.232900000     -1.583400000     -1.069300000
H       -3.698000000      1.385900000      0.978800000
H       -4.209300000     -0.993100000      0.477100000
H        4.707400000     -0.407000000      0.055700000
H        4.433100000      0.654200000     -1.150300000
H       -1.775700000     -3.156400000     -0.980000000
H        1.225100000     -1.475500000      2.267800000
*
