
!RKS B3LYP 6-31G(d,p) TightSCF Opt D3BJ
 
%pal nprocs 2 end
%maxcore 3000

%cpcm
  smd true
  SMDsolvent "WATER"
  end

%scf
  MaxIter 400
  SOSCF Start 0.00033
  end
end

%output
  PrintLevel Normal
  Print[ P_OrbEn ] 2        # print ALL orbital energies (not just up to LUMO+9) :contentReference[oaicite:10]{index=10}
  XYZFile true              # writes basename.xyz (handy for reuse) :contentReference[oaicite:11]{index=11}
  end

*xyz 0 1
6       -1.428404462     -4.750331099      1.464381979
6       -1.164740366     -6.256421373      1.655419639
6        0.075479841     -6.451573503      2.548169697
7       -2.332253055     -6.881494368      2.295562664
8        0.126897779     -5.920449193      3.645491489
8        1.149889142     -7.286556751      2.106957436
1       -1.600897425     -4.290094145      2.426881462
1       -2.298402007     -4.613656503      0.837951459
1       -0.991896058     -6.716706424      0.693292128
1       -2.159095654     -7.869391171      2.422365316
1       -3.147020809     -6.753082049      1.711042180
1        1.295710951     -7.987233937      2.747129069
1       -0.570454737     -4.289138631      0.996169715
*
