
!RKS B3LYP 6-31G(d,p) TightSCF D3BJ

%pal nprocs 2 end
%maxcore 3000

%elprop
  Polar 1      # polarizability via CP-SCF
end

%output
  PrintLevel Normal
  Print[ P_OrbEn ] 2
end

*xyz 0 1
  O     -1.914049    0.273293    1.861937
  O     -3.597977    0.726922    0.430829
  N     -3.230957   -2.003501   -0.531715
  C     -1.325332   -0.627000   -1.245142
  C     -0.207518    0.309115   -0.851245
  C      1.020760   -0.186217   -0.302428
  C     -2.142616   -1.158012   -0.043944
  C      2.026548    0.750877    0.112414
  C     -0.390641    1.674144   -0.968850
  C      1.292449   -1.574883   -0.149411
  C      1.787103    2.144494   -0.029031
  C      0.602163    2.596193   -0.560813
  C      3.245241    0.266263    0.660097
  C     -2.643980    0.036871    0.756287
  C      2.484986   -2.012322    0.385821
  C      3.471970   -1.084775    0.797519
  H     -2.018485   -0.098576   -1.908042
  H     -0.950422   -1.496639   -1.791922
  H     -1.493180   -1.748705    0.604807
  H     -1.325177    2.046815   -1.379183
  H      0.552653   -2.303718   -0.461472
  H      2.556936    2.841615    0.290293
  H      0.419630    3.661074   -0.670202
  H      3.996677    0.987804    0.969467
  H      2.670844   -3.076992    0.492157
  H     -3.891772   -1.399989   -1.021660
  H     -3.743023   -2.364424    0.272189
  H      4.406707   -1.442975    1.218473
  H     -2.266638    1.072748    2.295270

*
