
!RKS B3LYP def2-TZVPP TightSCF D3BJ # 6-31G(d,p)

%pal nprocs 2 end
%maxcore 3000

%elprop
  Polar 1      # polarizability via CP-SCF
end

%output
  PrintLevel Normal
  Print[ P_OrbEn ] 2
end

*xyz 0 1
  O     -1.704046   -1.253091   -1.402042
  O     -3.174494   -1.494718    0.275123
  N     -3.890393    1.196903   -0.173471
  N      4.872819   -0.989467   -0.402947
  C     -1.546478    1.176499    0.746440
  C     -2.522007    0.733678   -0.378080
  C     -0.130444    0.727231    0.530524
  C      0.368989   -0.396968    1.191334
  C      0.693417    1.398833   -0.376832
  C     -2.526151   -0.776642   -0.456980
  C      1.657762   -0.846890    0.958133
  C      1.983429    0.963854   -0.623730
  C      2.469735   -0.165604    0.045556
  C      3.796198   -0.620301   -0.201902
  H     -1.926570    0.792724    1.693890
  H     -1.593531    2.265618    0.777000
  H     -2.155166    1.122726   -1.325302
  H     -0.262010   -0.925113    1.893739
  H      0.317224    2.271849   -0.893605
  H     -3.870573    2.205228   -0.063853
  H     -4.234810    0.821564    0.705004
  H      2.039913   -1.716312    1.473763
  H      2.617545    1.486968   -1.325213
  H     -1.702859   -2.223968   -1.361252

*
